certificates/rado_a9_c128_N20.cnf
c Rad2 upper bound instance: x1 + 9*x2 - x3 = 128, interval [1,20]
p cnf 20 88
1 8 15 0
-1 -8 -15 0
1 16 17 0
-1 -16 -17 0
2 9 15 0
-2 -9 -15 0
2 16 18 0
-2 -16 -18 0
1 3 14 0
-1 -3 -14 0
3 10 15 0
-3 -10 -15 0
3 16 19 0
-3 -16 -19 0
2 4 14 0
-2 -4 -14 0
4 11 15 0
-4 -11 -15 0
4 16 20 0
-4 -16 -20 0
3 5 14 0
-3 -5 -14 0
5 12 15 0
-5 -12 -15 0
4 6 14 0
-4 -6 -14 0
6 13 15 0
-6 -13 -15 0
5 7 14 0
-5 -7 -14 0
7 14 15 0
-7 -14 -15 0
6 8 14 0
-6 -8 -14 0
8 15 0
-8 -15 0
7 9 14 0
-7 -9 -14 0
9 15 16 0
-9 -15 -16 0
8 10 14 0
-8 -10 -14 0
10 15 17 0
-10 -15 -17 0
9 11 14 0
-9 -11 -14 0
11 15 18 0
-11 -15 -18 0
1 12 13 0
-1 -12 -13 0
10 12 14 0
-10 -12 -14 0
12 15 19 0
-12 -15 -19 0
2 13 0
-2 -13 0
11 13 14 0
-11 -13 -14 0
13 15 20 0
-13 -15 -20 0
3 13 14 0
-3 -13 -14 0
12 14 0
-12 -14 0
4 13 15 0
-4 -13 -15 0
13 14 15 0
-13 -14 -15 0
5 13 16 0
-5 -13 -16 0
14 16 0
-14 -16 0
6 13 17 0
-6 -13 -17 0
14 15 17 0
-14 -15 -17 0
7 13 18 0
-7 -13 -18 0
14 16 18 0
-14 -16 -18 0
8 13 19 0
-8 -13 -19 0
14 17 19 0
-14 -17 -19 0
9 13 20 0
-9 -13 -20 0
14 18 20 0
-14 -18 -20 0
