certificates/rado_a9_c128_N20.drat
-18 -20 0
d -18 -14 -20 0
3 14 0
d 3 1 14 0
-16 -19 0
d -16 -3 -19 0
16 18 0
d 16 2 18 0
-20 0
14 0
-12 0
-16 0
18 0
4 0
-2 0
-6 0
13 0
-15 0
-11 0
-3 0
-7 0
8 0
10 0
9 0
19 0
5 0
0
